-379 -390
-209 -359
-193 -349
-152 -355
-143 -321
-135 -310
-106 -165
-43 -237
9 -373
50 -284
227 -287
182 -212
147 -195
170 -153
94 -97
91 45
32 125
-47 87
-172 91
-210 115
-363 213
-364 269
-260 248
-224 210
-110 348
204 293
246 308
330 323
427 262
408 84
422 2
449 1
425 -115
439 -378
275 -215
242 -54
214 -34
236 73
297 101
265 105
85 149
74 207
3 183
-182 39
-425 -20
-411 -64
-374 -108
-335 -233
-297 -245
-347 -266
